NAME: CMT11_4
TYPE: CVRP
COMMENT: 1042.11 - Cluster Nr.4
DIMENSION: 16
CAPACITY: 200
EDGE_WEIGHT_TYPE: EUC_2D
NODE_COORD_TYPE: TWOD_COORDS
NODE_COORD_SECTION: 
15 31 7
4 35 7
12 32 9
16 25 3
8 31 5
3 47 6
2 40 5
10 34 9
9 34 6
14 32 5
5 35 5
6 10 45
11 46 9
7 36 3
13 39 3
1 25 1
DEPOT_SECTION: 
6
-1
DEMAND_SECTION: 
4 5
10 11
5 15
11 19
6 0
9 15
8 13
14 6
2 13
12 5
7 18
1 25
13 12
15 14
16 7
3 17
EOF
